\ Model firm
\ LP format - for model browsing. Use MPS format to capture full model detail.
Maximize
  21.17291714140982 output - 5 emission + [ - 0.9917250380826645 output ^2
   + 1.583450076165329 output * emission - 0.7917250380826646 emission ^2
   ] / 2 
Subject To
 R0: - output + emission <= 0
Bounds
End
